unsat
(:max-memory          18.52
 :memory              18.42
 :nlsat-arith-var     2
 :nlsat-atoms         9
 :nlsat-bool-var      1
 :nlsat-clauses       9
 :nlsat-conflicts     1
 :nlsat-propagations  5
 :nlsat-stages        1
 :num-allocs          58556
 :rlimit-count        2561
 :solve-eqs-elim-vars 1
 :solve-eqs-steps     4
 :time                0.00
 :total-time          0.02)
